[runlim] version:		1.10
[runlim] time limit:		311040000 seconds
[runlim] real time limit:	600 seconds
[runlim] space limit:		14000 MB
[runlim] argv[0]:		python3
[runlim] argv[1]:		-u
[runlim] argv[2]:		mip.py
[runlim] argv[3]:		TUD916.3
[runlim] start:			Tue Jan 20 15:25:51 2026
[runlim] main pid:		85279
Building MIP model...
[runlim] sample:		9.9 time, 10.1 real, 38.6 MB
[runlim] sample:		19.9 time, 20.1 real, 40.5 MB
[runlim] sample:		29.9 time, 30.1 real, 42.6 MB
[runlim] sample:		39.9 time, 40.1 real, 43.2 MB
[runlim] sample:		49.9 time, 50.1 real, 45.3 MB
[runlim] sample:		59.9 time, 60.1 real, 46.1 MB
[runlim] sample:		69.9 time, 70.1 real, 46.2 MB
[runlim] sample:		79.9 time, 80.1 real, 48.3 MB
[runlim] sample:		89.9 time, 90.1 real, 49.0 MB
[runlim] sample:		99.9 time, 100.1 real, 49.3 MB
[runlim] sample:		109.9 time, 110.1 real, 49.2 MB
[runlim] sample:		119.9 time, 120.1 real, 49.4 MB
[runlim] sample:		129.9 time, 130.1 real, 49.7 MB
[runlim] sample:		139.9 time, 140.1 real, 52.1 MB
[runlim] sample:		149.9 time, 150.1 real, 52.3 MB
[runlim] sample:		159.9 time, 160.1 real, 52.6 MB
[runlim] sample:		169.8 time, 170.1 real, 52.8 MB
[runlim] sample:		179.8 time, 180.1 real, 55.6 MB
[runlim] sample:		189.8 time, 190.1 real, 55.9 MB
[runlim] sample:		199.8 time, 200.1 real, 56.1 MB
[runlim] sample:		209.8 time, 210.1 real, 56.2 MB
[runlim] sample:		219.8 time, 220.1 real, 56.3 MB
[runlim] sample:		229.8 time, 230.1 real, 61.2 MB
[runlim] sample:		239.8 time, 240.1 real, 61.8 MB
[runlim] sample:		249.8 time, 250.1 real, 62.2 MB
[runlim] sample:		259.8 time, 260.1 real, 62.4 MB
[runlim] sample:		269.8 time, 270.1 real, 62.6 MB
[runlim] sample:		279.8 time, 280.1 real, 62.8 MB
[runlim] sample:		289.8 time, 290.1 real, 62.9 MB
[runlim] sample:		299.8 time, 300.1 real, 66.2 MB
[runlim] sample:		309.8 time, 310.1 real, 66.8 MB
[runlim] sample:		319.8 time, 320.1 real, 67.3 MB
[runlim] sample:		329.8 time, 330.1 real, 67.6 MB
[runlim] sample:		339.8 time, 340.1 real, 67.8 MB
[runlim] sample:		349.8 time, 350.1 real, 67.9 MB
[runlim] sample:		359.7 time, 360.1 real, 68.2 MB
[runlim] sample:		369.7 time, 370.1 real, 68.3 MB
[runlim] sample:		379.7 time, 380.1 real, 68.3 MB
[runlim] sample:		389.7 time, 390.1 real, 71.9 MB
[runlim] sample:		399.7 time, 400.1 real, 72.9 MB
[runlim] sample:		409.7 time, 410.1 real, 73.3 MB
[runlim] sample:		419.7 time, 420.1 real, 73.7 MB
[runlim] sample:		429.7 time, 430.1 real, 73.9 MB
[runlim] sample:		439.7 time, 440.1 real, 74.2 MB
Build time: 442.49s
Solving MIP (minimizing number of labels)...
Version identifier: 22.1.1.0 | 2022-11-28 | 9160aff4d
CPXPARAM_Read_DataCheck                          1
Legacy callback                                  i
Tried aggregator 2 times.
MIP Presolve eliminated 794808 rows and 530 columns.
MIP Presolve modified 101034 coefficients.
Aggregator did 17652 substitutions.
Reduced MIP has 58424 rows, 17170 columns, and 705560 nonzeros.
Reduced MIP has 17170 binaries, 0 generals, 0 SOSs, and 0 indicators.
Presolve time = 4.37 sec. (6058.55 ticks)
Probing fixed 165 vars, tightened 0 bounds.
Probing changed sense of 19 constraints.
Probing time = 0.06 sec. (23.37 ticks)
Tried aggregator 1 time.
Detecting symmetries...
MIP Presolve eliminated 129 rows and 167 columns.
MIP Presolve modified 4480 coefficients.
Reduced MIP has 57931 rows, 17003 columns, and 690495 nonzeros.
Reduced MIP has 17003 binaries, 0 generals, 0 SOSs, and 0 indicators.
Presolve time = 0.92 sec. (963.87 ticks)
Probing fixed 14 vars, tightened 0 bounds.
Probing changed sense of 3 constraints.
Probing time = 0.07 sec. (23.29 ticks)
Clique table members: 75123.
MIP emphasis: balance optimality and feasibility.
MIP search method: dynamic search.
Parallel mode: deterministic, using up to 12 threads.
[runlim] sample:		458.2 time, 450.1 real, 602.9 MB
[runlim] sample:		503.9 time, 460.1 real, 823.9 MB
[runlim] sample:		584.4 time, 470.1 real, 1686.1 MB
[runlim] sample:		682.9 time, 480.1 real, 1686.1 MB
[runlim] sample:		782.2 time, 490.1 real, 1686.1 MB
[runlim] sample:		880.9 time, 500.1 real, 1686.1 MB
[runlim] sample:		979.4 time, 510.1 real, 1686.1 MB
[runlim] sample:		1078.8 time, 520.1 real, 1686.1 MB
[runlim] sample:		1154.0 time, 530.1 real, 821.8 MB
[runlim] sample:		1184.0 time, 540.1 real, 821.8 MB
[runlim] sample:		1207.4 time, 550.1 real, 821.8 MB
Root relaxation solution time = 108.10 sec. (33705.13 ticks)

        Nodes                                         Cuts/
   Node  Left     Objective  IInf  Best Integer    Best Bound    ItCnt     Gap

*     0+    0                           48.0000        0.0000           100.00%
*     0+    0                           46.0000        0.0000           100.00%
*     0+    0                           44.0000        0.0000           100.00%
      0     0       18.0000  1769       44.0000       18.0000    50212   59.09%

========== NEW INCUMBENT SOLUTION ==========
{1: 778, 2: 540, 3: 30, 4: 268, 5: 652, 6: 414, 7: 478, 8: 240, 9: 72, 10: 310, 11: 736, 12: 498, 13: 736, 14: 498, 15: 498, 16: 736, 17: 428, 18: 666, 19: 128, 20: 366, 21: 652, 22: 414, 23: 156, 24: 394, 25: 366, 26: 128, 27: 428, 28: 666, 29: 736, 30: 498, 31: 498, 32: 736, 33: 268, 34: 30, 35: 666, 36: 428, 37: 338, 38: 100, 39: 72, 40: 310, 41: 170, 42: 408, 43: 736, 44: 498, 45: 282, 46: 44, 47: 414, 48: 652, 49: 652, 50: 414, 51: 366, 52: 128, 53: 394, 54: 156, 55: 30, 56: 268, 57: 736, 58: 498, 59: 778, 60: 540, 61: 666, 62: 428, 63: 268, 64: 30, 65: 128, 66: 366, 67: 338, 68: 100, 69: 498, 70: 736, 71: 240, 72: 478, 73: 380, 74: 142, 75: 310, 76: 72, 77: 652, 78: 414, 79: 498, 80: 736, 81: 142, 82: 380, 83: 414, 84: 652, 85: 498, 86: 736, 87: 652, 88: 414, 89: 792, 90: 554, 91: 498, 92: 736, 93: 428, 94: 666, 95: 30, 96: 268, 97: 366, 98: 128, 99: 72, 100: 310, 101: 428, 102: 666, 103: 366, 104: 128, 105: 736, 106: 498, 107: 736, 108: 498, 109: 498, 110: 736, 111: 498, 112: 736, 113: 708, 114: 470, 115: 414, 116: 652, 117: 540, 118: 778, 119: 268, 120: 30, 121: 470, 122: 708, 123: 414, 124: 652, 125: 470, 126: 708, 127: 428, 128: 666, 129: 86, 130: 324, 131: 498, 132: 736, 133: 428, 134: 666, 135: 128, 136: 366, 137: 86, 138: 324, 139: 128, 140: 366, 141: 778, 142: 540, 143: 498, 144: 736, 145: 792, 146: 554, 147: 128, 148: 366, 149: 254, 150: 16, 151: 764, 152: 526, 153: 366, 154: 128, 155: 366, 156: 128, 157: 16, 158: 254, 159: 652, 160: 414, 161: 72, 162: 310, 163: 652, 164: 414, 165: 540, 166: 778, 167: 554, 168: 792, 169: 428, 170: 666, 171: 736, 172: 498, 173: 540, 174: 778, 175: 72, 176: 310, 177: 240, 178: 478, 179: 428, 180: 666, 181: 652, 182: 414, 183: 666, 184: 428, 185: 72, 186: 310, 187: 498, 188: 736, 189: 778, 190: 540, 191: 128, 192: 366, 193: 652, 194: 414, 195: 30, 196: 268, 197: 666, 198: 428, 199: 296, 200: 58, 201: 268, 202: 30, 203: 736, 204: 498, 205: 240, 206: 478, 207: 764, 208: 526, 209: 778, 210: 540, 211: 778, 212: 540, 213: 764, 214: 526, 215: 498, 216: 736, 217: 498, 218: 736, 219: 72, 220: 310, 221: 380, 222: 142, 223: 428, 224: 666, 225: 72, 226: 310, 227: 498, 228: 736, 229: 708, 230: 470, 231: 414, 232: 652, 233: 44, 234: 282, 235: 254, 236: 16, 237: 128, 238: 366, 239: 666, 240: 428, 241: 764, 242: 526, 243: 414, 244: 652, 245: 498, 246: 736, 247: 666, 248: 428, 249: 666, 250: 428, 251: 282, 252: 44, 253: 366, 254: 128, 255: 666, 256: 428, 257: 708, 258: 470, 259: 778, 260: 540, 261: 72, 262: 310, 263: 652, 264: 414, 265: 366, 266: 128, 267: 282, 268: 44, 269: 708, 270: 470, 271: 666, 272: 428, 273: 366, 274: 128, 275: 72, 276: 310, 277: 666, 278: 428, 279: 72, 280: 310, 281: 554, 282: 792, 283: 366, 284: 128, 285: 414, 286: 652, 287: 310, 288: 72, 289: 736, 290: 498, 291: 666, 292: 428, 293: 72, 294: 310, 295: 666, 296: 428, 297: 366, 298: 128, 299: 736, 300: 498, 301: 352, 302: 114, 303: 30, 304: 268, 305: 380, 306: 142, 307: 128, 308: 366, 309: 72, 310: 310, 311: 30, 312: 268, 313: 736, 314: 498, 315: 792, 316: 554, 317: 30, 318: 268, 319: 128, 320: 366, 321: 652, 322: 414, 323: 652, 324: 414, 325: 100, 326: 338, 327: 128, 328: 366, 329: 16, 330: 254, 331: 128, 332: 366, 333: 498, 334: 736, 335: 16, 336: 254, 337: 414, 338: 652, 339: 366, 340: 128, 341: 156, 342: 394, 343: 428, 344: 666, 345: 498, 346: 736, 347: 268, 348: 30, 349: 324, 350: 86, 351: 428, 352: 666, 353: 30, 354: 268, 355: 380, 356: 142, 357: 428, 358: 666, 359: 666, 360: 428, 361: 240, 362: 478, 363: 268, 364: 30, 365: 428, 366: 666, 367: 366, 368: 128, 369: 470, 370: 708, 371: 792, 372: 554, 373: 778, 374: 540, 375: 526, 376: 764, 377: 414, 378: 652, 379: 408, 380: 170, 381: 170, 382: 408, 383: 170, 384: 408, 385: 58, 386: 296, 387: 128, 388: 366, 389: 58, 390: 296, 391: 428, 392: 666, 393: 778, 394: 540, 395: 498, 396: 736, 397: 58, 398: 296, 399: 324, 400: 86, 401: 540, 402: 778, 403: 554, 404: 792, 405: 128, 406: 366, 407: 72, 408: 310, 409: 380, 410: 142, 411: 428, 412: 666, 413: 310, 414: 72, 415: 792, 416: 554, 417: 666, 418: 428, 419: 428, 420: 666, 421: 86, 422: 324, 423: 736, 424: 498, 425: 666, 426: 428, 427: 666, 428: 428, 429: 366, 430: 128, 431: 16, 432: 254, 433: 16, 434: 254, 435: 540, 436: 778, 437: 736, 438: 498, 439: 498, 440: 736, 441: 254, 442: 16, 443: 736, 444: 498, 445: 470, 446: 708, 447: 72, 448: 310, 449: 44, 450: 282, 451: 296, 452: 58, 453: 428, 454: 666, 455: 428, 456: 666, 457: 366, 458: 128, 459: 268, 460: 30, 461: 478, 462: 240, 463: 666, 464: 428, 465: 296, 466: 58, 467: 58, 468: 296, 469: 666, 470: 428, 471: 86, 472: 324, 473: 792, 474: 554, 475: 366, 476: 128, 477: 414, 478: 652, 479: 324, 480: 86, 481: 540, 482: 778, 483: 666, 484: 428, 485: 142, 486: 380, 487: 666, 488: 428, 489: 58, 490: 296, 491: 470, 492: 708, 493: 240, 494: 478, 495: 16, 496: 254, 497: 526, 498: 764, 499: 428, 500: 666, 501: 722, 502: 484, 503: 478, 504: 240, 505: 540, 506: 778, 507: 380, 508: 142, 509: 652, 510: 414, 511: 366, 512: 128, 513: 310, 514: 72, 515: 16, 516: 254, 517: 652, 518: 414, 519: 666, 520: 428, 521: 792, 522: 554, 523: 428, 524: 666, 525: 778, 526: 540, 527: 792, 528: 554, 529: 414, 530: 652, 531: 736, 532: 498, 533: 310, 534: 72, 535: 268, 536: 30, 537: 72, 538: 310, 539: 428, 540: 666, 541: 428, 542: 666, 543: 86, 544: 324, 545: 498, 546: 736, 547: 30, 548: 268, 549: 778, 550: 540, 551: 100, 552: 338, 553: 428, 554: 666, 555: 428, 556: 666, 557: 764, 558: 526, 559: 736, 560: 498, 561: 72, 562: 310, 563: 72, 564: 310, 565: 428, 566: 666, 567: 498, 568: 736, 569: 240, 570: 478, 571: 128, 572: 366, 573: 128, 574: 366, 575: 414, 576: 652, 577: 778, 578: 540, 579: 128, 580: 366, 581: 736, 582: 498, 583: 526, 584: 764, 585: 408, 586: 170, 587: 456, 588: 694, 589: 694, 590: 456, 591: 16, 592: 254, 593: 694, 594: 456, 595: 666, 596: 428, 597: 408, 598: 170, 599: 666, 600: 428, 601: 16, 602: 254, 603: 156, 604: 394, 605: 666, 606: 428, 607: 128, 608: 366, 609: 366, 610: 128, 611: 380, 612: 142, 613: 428, 614: 666, 615: 156, 616: 394, 617: 540, 618: 778, 619: 380, 620: 142, 621: 666, 622: 428, 623: 792, 624: 554, 625: 428, 626: 666, 627: 310, 628: 72, 629: 414, 630: 652, 631: 240, 632: 478, 633: 498, 634: 736, 635: 366, 636: 128, 637: 296, 638: 58, 639: 72, 640: 310, 641: 428, 642: 666, 643: 128, 644: 366, 645: 736, 646: 498, 647: 498, 648: 736, 649: 268, 650: 30, 651: 296, 652: 58, 653: 352, 654: 114, 655: 72, 656: 310, 657: 540, 658: 778, 659: 736, 660: 498, 661: 114, 662: 352, 663: 428, 664: 666, 665: 268, 666: 30, 667: 324, 668: 86, 669: 540, 670: 778, 671: 30, 672: 268, 673: 778, 674: 540, 675: 428, 676: 666, 677: 254, 678: 16, 679: 72, 680: 310, 681: 652, 682: 414, 683: 708, 684: 470, 685: 240, 686: 478, 687: 324, 688: 86, 689: 694, 690: 456, 691: 792, 692: 554, 693: 310, 694: 72, 695: 736, 696: 498, 697: 100, 698: 338, 699: 310, 700: 72, 701: 456, 702: 694, 703: 408, 704: 170, 705: 666, 706: 428, 707: 142, 708: 380, 709: 72, 710: 310, 711: 666, 712: 428, 713: 254, 714: 16, 715: 428, 716: 666, 717: 58, 718: 296, 719: 86, 720: 324, 721: 16, 722: 254, 723: 540, 724: 778, 725: 366, 726: 128, 727: 240, 728: 478, 729: 16, 730: 254, 731: 428, 732: 666, 733: 764, 734: 526, 735: 470, 736: 708, 737: 666, 738: 428, 739: 170, 740: 408, 741: 498, 742: 736, 743: 86, 744: 324, 745: 736, 746: 498, 747: 366, 748: 128, 749: 736, 750: 498, 751: 708, 752: 470, 753: 170, 754: 408, 755: 254, 756: 16, 757: 652, 758: 414, 759: 540, 760: 778, 761: 100, 762: 338, 763: 652, 764: 414, 765: 114, 766: 352, 767: 296, 768: 58, 769: 428, 770: 666, 771: 72, 772: 310, 773: 240, 774: 478, 775: 100, 776: 338, 777: 366, 778: 128, 779: 778, 780: 540, 781: 296, 782: 58, 783: 722, 784: 484, 785: 456, 786: 694, 787: 128, 788: 366, 789: 128, 790: 366, 791: 666, 792: 428, 793: 16, 794: 254, 795: 666, 796: 428, 797: 394, 798: 156, 799: 478, 800: 240, 801: 30, 802: 268, 803: 30, 804: 268, 805: 16, 806: 254, 807: 114, 808: 352, 809: 498, 810: 736, 811: 652, 812: 414, 813: 736, 814: 498, 815: 666, 816: 428, 817: 380, 818: 142, 819: 498, 820: 736, 821: 72, 822: 310, 823: 58, 824: 296, 825: 414, 826: 652, 827: 736, 828: 498, 829: 380, 830: 142, 831: 666, 832: 428, 833: 428, 834: 666, 835: 128, 836: 366, 837: 666, 838: 428, 839: 414, 840: 652, 841: 498, 842: 736, 843: 296, 844: 58, 845: 366, 846: 128, 847: 414, 848: 652, 849: 86, 850: 324, 851: 72, 852: 310, 853: 128, 854: 366, 855: 708, 856: 470, 857: 170, 858: 408, 859: 58, 860: 296, 861: 414, 862: 652, 863: 240, 864: 478, 865: 428, 866: 666, 867: 666, 868: 428, 869: 708, 870: 470, 871: 324, 872: 86, 873: 72, 874: 310, 875: 142, 876: 380, 877: 694, 878: 456, 879: 484, 880: 722, 881: 268, 882: 30, 883: 366, 884: 128, 885: 58, 886: 296, 887: 736, 888: 498, 889: 156, 890: 394, 891: 282, 892: 44, 893: 394, 894: 156, 895: 736, 896: 498, 897: 296, 898: 58, 899: 310, 900: 72, 901: 268, 902: 30, 903: 30, 904: 268, 905: 428, 906: 666, 907: 792, 908: 554, 909: 778, 910: 540, 911: 352, 912: 114, 913: 128, 914: 366, 915: 58, 916: 296}
Number of labels used: 44
Total time: 557.31 sec
Memory: 827.14 MB
=============================================

========== NEW INCUMBENT SOLUTION ==========
{1: 778, 2: 540, 3: 30, 4: 268, 5: 652, 6: 414, 7: 478, 8: 240, 9: 72, 10: 310, 11: 736, 12: 498, 13: 736, 14: 498, 15: 498, 16: 736, 17: 428, 18: 666, 19: 128, 20: 366, 21: 652, 22: 414, 23: 156, 24: 394, 25: 366, 26: 128, 27: 428, 28: 666, 29: 736, 30: 498, 31: 498, 32: 736, 33: 268, 34: 30, 35: 666, 36: 428, 37: 338, 38: 100, 39: 72, 40: 310, 41: 170, 42: 408, 43: 736, 44: 498, 45: 282, 46: 44, 47: 414, 48: 652, 49: 652, 50: 414, 51: 366, 52: 128, 53: 394, 54: 156, 55: 30, 56: 268, 57: 736, 58: 498, 59: 778, 60: 540, 61: 666, 62: 428, 63: 268, 64: 30, 65: 128, 66: 366, 67: 338, 68: 100, 69: 498, 70: 736, 71: 240, 72: 478, 73: 380, 74: 142, 75: 310, 76: 72, 77: 652, 78: 414, 79: 498, 80: 736, 81: 142, 82: 380, 83: 414, 84: 652, 85: 498, 86: 736, 87: 652, 88: 414, 89: 792, 90: 554, 91: 498, 92: 736, 93: 428, 94: 666, 95: 30, 96: 268, 97: 366, 98: 128, 99: 72, 100: 310, 101: 428, 102: 666, 103: 366, 104: 128, 105: 736, 106: 498, 107: 736, 108: 498, 109: 498, 110: 736, 111: 498, 112: 736, 113: 708, 114: 470, 115: 414, 116: 652, 117: 540, 118: 778, 119: 268, 120: 30, 121: 470, 122: 708, 123: 414, 124: 652, 125: 470, 126: 708, 127: 428, 128: 666, 129: 86, 130: 324, 131: 498, 132: 736, 133: 428, 134: 666, 135: 128, 136: 366, 137: 86, 138: 324, 139: 128, 140: 366, 141: 778, 142: 540, 143: 498, 144: 736, 145: 792, 146: 554, 147: 128, 148: 366, 149: 254, 150: 16, 151: 764, 152: 526, 153: 366, 154: 128, 155: 366, 156: 128, 157: 16, 158: 254, 159: 652, 160: 414, 161: 72, 162: 310, 163: 652, 164: 414, 165: 540, 166: 778, 167: 554, 168: 792, 169: 428, 170: 666, 171: 736, 172: 498, 173: 540, 174: 778, 175: 72, 176: 310, 177: 240, 178: 478, 179: 428, 180: 666, 181: 652, 182: 414, 183: 666, 184: 428, 185: 72, 186: 310, 187: 498, 188: 736, 189: 778, 190: 540, 191: 128, 192: 366, 193: 652, 194: 414, 195: 30, 196: 268, 197: 666, 198: 428, 199: 296, 200: 58, 201: 268, 202: 30, 203: 736, 204: 498, 205: 240, 206: 478, 207: 764, 208: 526, 209: 778, 210: 540, 211: 778, 212: 540, 213: 764, 214: 526, 215: 498, 216: 736, 217: 498, 218: 736, 219: 72, 220: 310, 221: 380, 222: 142, 223: 428, 224: 666, 225: 72, 226: 310, 227: 498, 228: 736, 229: 708, 230: 470, 231: 414, 232: 652, 233: 44, 234: 282, 235: 254, 236: 16, 237: 128, 238: 366, 239: 666, 240: 428, 241: 764, 242: 526, 243: 414, 244: 652, 245: 498, 246: 736, 247: 666, 248: 428, 249: 666, 250: 428, 251: 282, 252: 44, 253: 366, 254: 128, 255: 666, 256: 428, 257: 708, 258: 470, 259: 778, 260: 540, 261: 72, 262: 310, 263: 652, 264: 414, 265: 366, 266: 128, 267: 282, 268: 44, 269: 708, 270: 470, 271: 666, 272: 428, 273: 366, 274: 128, 275: 72, 276: 310, 277: 666, 278: 428, 279: 72, 280: 310, 281: 554, 282: 792, 283: 366, 284: 128, 285: 414, 286: 652, 287: 310, 288: 72, 289: 736, 290: 498, 291: 666, 292: 428, 293: 72, 294: 310, 295: 666, 296: 428, 297: 366, 298: 128, 299: 736, 300: 498, 301: 352, 302: 114, 303: 30, 304: 268, 305: 380, 306: 142, 307: 128, 308: 366, 309: 72, 310: 310, 311: 30, 312: 268, 313: 736, 314: 498, 315: 792, 316: 554, 317: 30, 318: 268, 319: 128, 320: 366, 321: 652, 322: 414, 323: 652, 324: 414, 325: 100, 326: 338, 327: 128, 328: 366, 329: 16, 330: 254, 331: 128, 332: 366, 333: 498, 334: 736, 335: 16, 336: 254, 337: 414, 338: 652, 339: 366, 340: 128, 341: 156, 342: 394, 343: 428, 344: 666, 345: 498, 346: 736, 347: 268, 348: 30, 349: 324, 350: 86, 351: 428, 352: 666, 353: 30, 354: 268, 355: 380, 356: 142, 357: 428, 358: 666, 359: 666, 360: 428, 361: 240, 362: 478, 363: 268, 364: 30, 365: 428, 366: 666, 367: 366, 368: 128, 369: 470, 370: 708, 371: 792, 372: 554, 373: 778, 374: 540, 375: 526, 376: 764, 377: 414, 378: 652, 379: 408, 380: 170, 381: 170, 382: 408, 383: 170, 384: 408, 385: 58, 386: 296, 387: 128, 388: 366, 389: 58, 390: 296, 391: 428, 392: 666, 393: 778, 394: 540, 395: 498, 396: 736, 397: 58, 398: 296, 399: 324, 400: 86, 401: 540, 402: 778, 403: 554, 404: 792, 405: 128, 406: 366, 407: 72, 408: 310, 409: 380, 410: 142, 411: 428, 412: 666, 413: 310, 414: 72, 415: 792, 416: 554, 417: 666, 418: 428, 419: 428, 420: 666, 421: 86, 422: 324, 423: 736, 424: 498, 425: 666, 426: 428, 427: 666, 428: 428, 429: 366, 430: 128, 431: 16, 432: 254, 433: 16, 434: 254, 435: 540, 436: 778, 437: 736, 438: 498, 439: 498, 440: 736, 441: 254, 442: 16, 443: 736, 444: 498, 445: 470, 446: 708, 447: 72, 448: 310, 449: 44, 450: 282, 451: 296, 452: 58, 453: 428, 454: 666, 455: 428, 456: 666, 457: 366, 458: 128, 459: 268, 460: 30, 461: 478, 462: 240, 463: 666, 464: 428, 465: 296, 466: 58, 467: 58, 468: 296, 469: 666, 470: 428, 471: 86, 472: 324, 473: 792, 474: 554, 475: 366, 476: 128, 477: 414, 478: 652, 479: 324, 480: 86, 481: 540, 482: 778, 483: 666, 484: 428, 485: 142, 486: 380, 487: 666, 488: 428, 489: 58, 490: 296, 491: 470, 492: 708, 493: 240, 494: 478, 495: 16, 496: 254, 497: 526, 498: 764, 499: 428, 500: 666, 501: 722, 502: 484, 503: 478, 504: 240, 505: 540, 506: 778, 507: 380, 508: 142, 509: 652, 510: 414, 511: 366, 512: 128, 513: 310, 514: 72, 515: 16, 516: 254, 517: 652, 518: 414, 519: 666, 520: 428, 521: 792, 522: 554, 523: 428, 524: 666, 525: 778, 526: 540, 527: 792, 528: 554, 529: 414, 530: 652, 531: 736, 532: 498, 533: 310, 534: 72, 535: 268, 536: 30, 537: 72, 538: 310, 539: 428, 540: 666, 541: 428, 542: 666, 543: 86, 544: 324, 545: 498, 546: 736, 547: 30, 548: 268, 549: 778, 550: 540, 551: 100, 552: 338, 553: 428, 554: 666, 555: 428, 556: 666, 557: 764, 558: 526, 559: 736, 560: 498, 561: 72, 562: 310, 563: 72, 564: 310, 565: 428, 566: 666, 567: 498, 568: 736, 569: 240, 570: 478, 571: 128, 572: 366, 573: 128, 574: 366, 575: 414, 576: 652, 577: 778, 578: 540, 579: 128, 580: 366, 581: 736, 582: 498, 583: 526, 584: 764, 585: 408, 586: 170, 587: 456, 588: 694, 589: 694, 590: 456, 591: 16, 592: 254, 593: 694, 594: 456, 595: 666, 596: 428, 597: 408, 598: 170, 599: 666, 600: 428, 601: 16, 602: 254, 603: 156, 604: 394, 605: 666, 606: 428, 607: 128, 608: 366, 609: 366, 610: 128, 611: 380, 612: 142, 613: 428, 614: 666, 615: 156, 616: 394, 617: 540, 618: 778, 619: 380, 620: 142, 621: 666, 622: 428, 623: 792, 624: 554, 625: 428, 626: 666, 627: 310, 628: 72, 629: 414, 630: 652, 631: 240, 632: 478, 633: 498, 634: 736, 635: 366, 636: 128, 637: 296, 638: 58, 639: 72, 640: 310, 641: 428, 642: 666, 643: 128, 644: 366, 645: 736, 646: 498, 647: 498, 648: 736, 649: 268, 650: 30, 651: 296, 652: 58, 653: 352, 654: 114, 655: 72, 656: 310, 657: 540, 658: 778, 659: 736, 660: 498, 661: 114, 662: 352, 663: 428, 664: 666, 665: 268, 666: 30, 667: 324, 668: 86, 669: 540, 670: 778, 671: 30, 672: 268, 673: 778, 674: 540, 675: 428, 676: 666, 677: 254, 678: 16, 679: 72, 680: 310, 681: 652, 682: 414, 683: 708, 684: 470, 685: 240, 686: 478, 687: 324, 688: 86, 689: 694, 690: 456, 691: 792, 692: 554, 693: 310, 694: 72, 695: 736, 696: 498, 697: 100, 698: 338, 699: 310, 700: 72, 701: 456, 702: 694, 703: 408, 704: 170, 705: 666, 706: 428, 707: 142, 708: 380, 709: 72, 710: 310, 711: 666, 712: 428, 713: 254, 714: 16, 715: 428, 716: 666, 717: 58, 718: 296, 719: 86, 720: 324, 721: 16, 722: 254, 723: 540, 724: 778, 725: 366, 726: 128, 727: 240, 728: 478, 729: 16, 730: 254, 731: 428, 732: 666, 733: 764, 734: 526, 735: 470, 736: 708, 737: 666, 738: 428, 739: 170, 740: 408, 741: 498, 742: 736, 743: 86, 744: 324, 745: 736, 746: 498, 747: 366, 748: 128, 749: 736, 750: 498, 751: 708, 752: 470, 753: 170, 754: 408, 755: 254, 756: 16, 757: 652, 758: 414, 759: 540, 760: 778, 761: 100, 762: 338, 763: 652, 764: 414, 765: 114, 766: 352, 767: 296, 768: 58, 769: 428, 770: 666, 771: 72, 772: 310, 773: 240, 774: 478, 775: 100, 776: 338, 777: 366, 778: 128, 779: 778, 780: 540, 781: 296, 782: 58, 783: 722, 784: 484, 785: 456, 786: 694, 787: 128, 788: 366, 789: 128, 790: 366, 791: 666, 792: 428, 793: 16, 794: 254, 795: 666, 796: 428, 797: 394, 798: 156, 799: 478, 800: 240, 801: 30, 802: 268, 803: 30, 804: 268, 805: 16, 806: 254, 807: 114, 808: 352, 809: 498, 810: 736, 811: 652, 812: 414, 813: 736, 814: 498, 815: 666, 816: 428, 817: 380, 818: 142, 819: 498, 820: 736, 821: 72, 822: 310, 823: 58, 824: 296, 825: 414, 826: 652, 827: 736, 828: 498, 829: 380, 830: 142, 831: 666, 832: 428, 833: 428, 834: 666, 835: 128, 836: 366, 837: 666, 838: 428, 839: 414, 840: 652, 841: 498, 842: 736, 843: 296, 844: 58, 845: 366, 846: 128, 847: 414, 848: 652, 849: 86, 850: 324, 851: 72, 852: 310, 853: 128, 854: 366, 855: 708, 856: 470, 857: 170, 858: 408, 859: 58, 860: 296, 861: 414, 862: 652, 863: 240, 864: 478, 865: 428, 866: 666, 867: 666, 868: 428, 869: 708, 870: 470, 871: 324, 872: 86, 873: 72, 874: 310, 875: 142, 876: 380, 877: 694, 878: 456, 879: 484, 880: 722, 881: 268, 882: 30, 883: 366, 884: 128, 885: 58, 886: 296, 887: 736, 888: 498, 889: 156, 890: 394, 891: 282, 892: 44, 893: 394, 894: 156, 895: 736, 896: 498, 897: 296, 898: 58, 899: 310, 900: 72, 901: 268, 902: 30, 903: 30, 904: 268, 905: 428, 906: 666, 907: 792, 908: 554, 909: 778, 910: 540, 911: 352, 912: 114, 913: 128, 914: 366, 915: 58, 916: 296}
Number of labels used: 44
Total time: 557.32 sec
Memory: 827.30 MB
=============================================

========== NEW INCUMBENT SOLUTION ==========
{1: 778, 2: 540, 3: 30, 4: 268, 5: 652, 6: 414, 7: 478, 8: 240, 9: 72, 10: 310, 11: 736, 12: 498, 13: 736, 14: 498, 15: 498, 16: 736, 17: 428, 18: 666, 19: 128, 20: 366, 21: 652, 22: 414, 23: 156, 24: 394, 25: 366, 26: 128, 27: 428, 28: 666, 29: 736, 30: 498, 31: 498, 32: 736, 33: 268, 34: 30, 35: 666, 36: 428, 37: 338, 38: 100, 39: 72, 40: 310, 41: 170, 42: 408, 43: 736, 44: 498, 45: 282, 46: 44, 47: 414, 48: 652, 49: 652, 50: 414, 51: 366, 52: 128, 53: 394, 54: 156, 55: 30, 56: 268, 57: 736, 58: 498, 59: 778, 60: 540, 61: 666, 62: 428, 63: 268, 64: 30, 65: 128, 66: 366, 67: 338, 68: 100, 69: 498, 70: 736, 71: 240, 72: 478, 73: 380, 74: 142, 75: 310, 76: 72, 77: 652, 78: 414, 79: 498, 80: 736, 81: 142, 82: 380, 83: 414, 84: 652, 85: 498, 86: 736, 87: 652, 88: 414, 89: 792, 90: 554, 91: 498, 92: 736, 93: 428, 94: 666, 95: 30, 96: 268, 97: 366, 98: 128, 99: 72, 100: 310, 101: 428, 102: 666, 103: 366, 104: 128, 105: 736, 106: 498, 107: 736, 108: 498, 109: 498, 110: 736, 111: 498, 112: 736, 113: 708, 114: 470, 115: 414, 116: 652, 117: 540, 118: 778, 119: 268, 120: 30, 121: 470, 122: 708, 123: 414, 124: 652, 125: 470, 126: 708, 127: 428, 128: 666, 129: 86, 130: 324, 131: 498, 132: 736, 133: 428, 134: 666, 135: 128, 136: 366, 137: 86, 138: 324, 139: 128, 140: 366, 141: 778, 142: 540, 143: 498, 144: 736, 145: 792, 146: 554, 147: 128, 148: 366, 149: 254, 150: 16, 151: 764, 152: 526, 153: 366, 154: 128, 155: 366, 156: 128, 157: 16, 158: 254, 159: 652, 160: 414, 161: 72, 162: 310, 163: 652, 164: 414, 165: 540, 166: 778, 167: 554, 168: 792, 169: 428, 170: 666, 171: 736, 172: 498, 173: 540, 174: 778, 175: 72, 176: 310, 177: 240, 178: 478, 179: 428, 180: 666, 181: 652, 182: 414, 183: 666, 184: 428, 185: 72, 186: 310, 187: 498, 188: 736, 189: 778, 190: 540, 191: 128, 192: 366, 193: 652, 194: 414, 195: 30, 196: 268, 197: 666, 198: 428, 199: 296, 200: 58, 201: 268, 202: 30, 203: 736, 204: 498, 205: 240, 206: 478, 207: 764, 208: 526, 209: 778, 210: 540, 211: 778, 212: 540, 213: 764, 214: 526, 215: 498, 216: 736, 217: 498, 218: 736, 219: 72, 220: 310, 221: 380, 222: 142, 223: 428, 224: 666, 225: 72, 226: 310, 227: 498, 228: 736, 229: 708, 230: 470, 231: 414, 232: 652, 233: 44, 234: 282, 235: 254, 236: 16, 237: 128, 238: 366, 239: 666, 240: 428, 241: 764, 242: 526, 243: 414, 244: 652, 245: 498, 246: 736, 247: 666, 248: 428, 249: 666, 250: 428, 251: 282, 252: 44, 253: 366, 254: 128, 255: 666, 256: 428, 257: 708, 258: 470, 259: 778, 260: 540, 261: 72, 262: 310, 263: 652, 264: 414, 265: 366, 266: 128, 267: 282, 268: 44, 269: 708, 270: 470, 271: 666, 272: 428, 273: 366, 274: 128, 275: 72, 276: 310, 277: 666, 278: 428, 279: 72, 280: 310, 281: 554, 282: 792, 283: 366, 284: 128, 285: 414, 286: 652, 287: 310, 288: 72, 289: 736, 290: 498, 291: 666, 292: 428, 293: 72, 294: 310, 295: 666, 296: 428, 297: 366, 298: 128, 299: 736, 300: 498, 301: 352, 302: 114, 303: 30, 304: 268, 305: 380, 306: 142, 307: 128, 308: 366, 309: 72, 310: 310, 311: 30, 312: 268, 313: 736, 314: 498, 315: 792, 316: 554, 317: 30, 318: 268, 319: 128, 320: 366, 321: 652, 322: 414, 323: 652, 324: 414, 325: 100, 326: 338, 327: 128, 328: 366, 329: 16, 330: 254, 331: 128, 332: 366, 333: 498, 334: 736, 335: 16, 336: 254, 337: 414, 338: 652, 339: 366, 340: 128, 341: 156, 342: 394, 343: 428, 344: 666, 345: 498, 346: 736, 347: 268, 348: 30, 349: 324, 350: 86, 351: 428, 352: 666, 353: 30, 354: 268, 355: 380, 356: 142, 357: 428, 358: 666, 359: 666, 360: 428, 361: 240, 362: 478, 363: 268, 364: 30, 365: 428, 366: 666, 367: 366, 368: 128, 369: 470, 370: 708, 371: 792, 372: 554, 373: 778, 374: 540, 375: 526, 376: 764, 377: 414, 378: 652, 379: 408, 380: 170, 381: 170, 382: 408, 383: 170, 384: 408, 385: 58, 386: 296, 387: 128, 388: 366, 389: 58, 390: 296, 391: 428, 392: 666, 393: 778, 394: 540, 395: 498, 396: 736, 397: 58, 398: 296, 399: 324, 400: 86, 401: 540, 402: 778, 403: 554, 404: 792, 405: 128, 406: 366, 407: 72, 408: 310, 409: 380, 410: 142, 411: 428, 412: 666, 413: 310, 414: 72, 415: 792, 416: 554, 417: 666, 418: 428, 419: 428, 420: 666, 421: 86, 422: 324, 423: 736, 424: 498, 425: 666, 426: 428, 427: 666, 428: 428, 429: 366, 430: 128, 431: 16, 432: 254, 433: 16, 434: 254, 435: 540, 436: 778, 437: 736, 438: 498, 439: 498, 440: 736, 441: 254, 442: 16, 443: 736, 444: 498, 445: 470, 446: 708, 447: 72, 448: 310, 449: 44, 450: 282, 451: 296, 452: 58, 453: 428, 454: 666, 455: 428, 456: 666, 457: 366, 458: 128, 459: 268, 460: 30, 461: 478, 462: 240, 463: 666, 464: 428, 465: 296, 466: 58, 467: 58, 468: 296, 469: 666, 470: 428, 471: 86, 472: 324, 473: 792, 474: 554, 475: 366, 476: 128, 477: 414, 478: 652, 479: 324, 480: 86, 481: 540, 482: 778, 483: 666, 484: 428, 485: 142, 486: 380, 487: 666, 488: 428, 489: 58, 490: 296, 491: 470, 492: 708, 493: 240, 494: 478, 495: 16, 496: 254, 497: 526, 498: 764, 499: 428, 500: 666, 501: 722, 502: 484, 503: 478, 504: 240, 505: 540, 506: 778, 507: 380, 508: 142, 509: 652, 510: 414, 511: 366, 512: 128, 513: 310, 514: 72, 515: 16, 516: 254, 517: 652, 518: 414, 519: 666, 520: 428, 521: 792, 522: 554, 523: 428, 524: 666, 525: 778, 526: 540, 527: 792, 528: 554, 529: 414, 530: 652, 531: 736, 532: 498, 533: 310, 534: 72, 535: 268, 536: 30, 537: 72, 538: 310, 539: 428, 540: 666, 541: 428, 542: 666, 543: 86, 544: 324, 545: 498, 546: 736, 547: 30, 548: 268, 549: 778, 550: 540, 551: 100, 552: 338, 553: 428, 554: 666, 555: 428, 556: 666, 557: 764, 558: 526, 559: 736, 560: 498, 561: 72, 562: 310, 563: 72, 564: 310, 565: 428, 566: 666, 567: 498, 568: 736, 569: 240, 570: 478, 571: 128, 572: 366, 573: 128, 574: 366, 575: 414, 576: 652, 577: 778, 578: 540, 579: 128, 580: 366, 581: 736, 582: 498, 583: 526, 584: 764, 585: 408, 586: 170, 587: 456, 588: 694, 589: 694, 590: 456, 591: 16, 592: 254, 593: 694, 594: 456, 595: 666, 596: 428, 597: 408, 598: 170, 599: 666, 600: 428, 601: 16, 602: 254, 603: 156, 604: 394, 605: 666, 606: 428, 607: 128, 608: 366, 609: 366, 610: 128, 611: 380, 612: 142, 613: 428, 614: 666, 615: 156, 616: 394, 617: 540, 618: 778, 619: 380, 620: 142, 621: 666, 622: 428, 623: 792, 624: 554, 625: 428, 626: 666, 627: 310, 628: 72, 629: 414, 630: 652, 631: 240, 632: 478, 633: 498, 634: 736, 635: 366, 636: 128, 637: 296, 638: 58, 639: 72, 640: 310, 641: 428, 642: 666, 643: 128, 644: 366, 645: 736, 646: 498, 647: 498, 648: 736, 649: 268, 650: 30, 651: 296, 652: 58, 653: 352, 654: 114, 655: 72, 656: 310, 657: 540, 658: 778, 659: 736, 660: 498, 661: 114, 662: 352, 663: 428, 664: 666, 665: 268, 666: 30, 667: 324, 668: 86, 669: 540, 670: 778, 671: 30, 672: 268, 673: 778, 674: 540, 675: 428, 676: 666, 677: 254, 678: 16, 679: 72, 680: 310, 681: 652, 682: 414, 683: 708, 684: 470, 685: 240, 686: 478, 687: 324, 688: 86, 689: 694, 690: 456, 691: 792, 692: 554, 693: 310, 694: 72, 695: 736, 696: 498, 697: 100, 698: 338, 699: 310, 700: 72, 701: 456, 702: 694, 703: 408, 704: 170, 705: 666, 706: 428, 707: 142, 708: 380, 709: 72, 710: 310, 711: 666, 712: 428, 713: 254, 714: 16, 715: 428, 716: 666, 717: 58, 718: 296, 719: 86, 720: 324, 721: 16, 722: 254, 723: 540, 724: 778, 725: 366, 726: 128, 727: 240, 728: 478, 729: 16, 730: 254, 731: 428, 732: 666, 733: 764, 734: 526, 735: 470, 736: 708, 737: 666, 738: 428, 739: 170, 740: 408, 741: 498, 742: 736, 743: 86, 744: 324, 745: 736, 746: 498, 747: 366, 748: 128, 749: 736, 750: 498, 751: 708, 752: 470, 753: 170, 754: 408, 755: 254, 756: 16, 757: 652, 758: 414, 759: 540, 760: 778, 761: 100, 762: 338, 763: 652, 764: 414, 765: 114, 766: 352, 767: 296, 768: 58, 769: 428, 770: 666, 771: 72, 772: 310, 773: 240, 774: 478, 775: 100, 776: 338, 777: 366, 778: 128, 779: 778, 780: 540, 781: 296, 782: 58, 783: 722, 784: 484, 785: 456, 786: 694, 787: 128, 788: 366, 789: 128, 790: 366, 791: 666, 792: 428, 793: 16, 794: 254, 795: 666, 796: 428, 797: 394, 798: 156, 799: 478, 800: 240, 801: 30, 802: 268, 803: 30, 804: 268, 805: 16, 806: 254, 807: 114, 808: 352, 809: 498, 810: 736, 811: 652, 812: 414, 813: 736, 814: 498, 815: 666, 816: 428, 817: 380, 818: 142, 819: 498, 820: 736, 821: 72, 822: 310, 823: 58, 824: 296, 825: 414, 826: 652, 827: 736, 828: 498, 829: 380, 830: 142, 831: 666, 832: 428, 833: 428, 834: 666, 835: 128, 836: 366, 837: 666, 838: 428, 839: 414, 840: 652, 841: 498, 842: 736, 843: 296, 844: 58, 845: 366, 846: 128, 847: 414, 848: 652, 849: 86, 850: 324, 851: 72, 852: 310, 853: 128, 854: 366, 855: 708, 856: 470, 857: 170, 858: 408, 859: 58, 860: 296, 861: 414, 862: 652, 863: 240, 864: 478, 865: 428, 866: 666, 867: 666, 868: 428, 869: 708, 870: 470, 871: 324, 872: 86, 873: 72, 874: 310, 875: 142, 876: 380, 877: 694, 878: 456, 879: 484, 880: 722, 881: 268, 882: 30, 883: 366, 884: 128, 885: 58, 886: 296, 887: 736, 888: 498, 889: 156, 890: 394, 891: 282, 892: 44, 893: 394, 894: 156, 895: 736, 896: 498, 897: 296, 898: 58, 899: 310, 900: 72, 901: 268, 902: 30, 903: 30, 904: 268, 905: 428, 906: 666, 907: 792, 908: 554, 909: 778, 910: 540, 911: 352, 912: 114, 913: 128, 914: 366, 915: 58, 916: 296}
Number of labels used: 44
Total time: 559.23 sec
Memory: 844.63 MB
=============================================
[runlim] sample:		1224.7 time, 560.1 real, 876.2 MB
[runlim] sample:		1244.7 time, 570.1 real, 956.1 MB
[runlim] sample:		1264.7 time, 580.1 real, 957.4 MB
[runlim] sample:		1284.7 time, 590.1 real, 958.2 MB
[runlim] sample:		1304.7 time, 600.1 real, 958.8 MB
[runlim] end:			Tue Jan 20 15:35:51 2026
[runlim] status:		out of time
[runlim] result:		2
[runlim] children:		0
[runlim] real:			600.12 seconds
[runlim] time:			1304.66 seconds
[runlim] space:			1686.1 MB
[runlim] samples:		6000
